c read Graph
c width = 29
c time = 429 ms
c width = 4
c time = 540 ms
c width = 4
c time = 4413 ms
s td 36 5 40
b 1 1 2 11
b 2 2 3 11 12
b 3 8 9 19 20
b 4 3 11 12 21
b 5 8 19 20 30
b 6 21 22 32 33
b 7 29 30 38 39
b 8 3 4 5 14
b 9 5 6 7 16
b 10 3 12 13 21 22
b 11 3 13 21 22 33
b 12 3 13 22 23 33
b 13 3 13 14 23 33
b 14 3 5 14 23 33
b 15 5 14 23 24 33
b 16 5 14 15 24 33
b 17 5 15 24 33 34
b 18 5 15 24 25 34
b 19 5 15 16 25 34
b 20 5 7 16 25 34
b 21 7 16 25 34 35
b 22 7 16 25 26 35
b 23 7 16 17 26 35
b 24 7 17 26 35 36
b 25 7 17 26 27 36
b 26 7 17 27 36 37
b 27 7 8 17 27 37
b 28 8 17 18 27 37
b 29 8 18 27 28 37
b 30 8 18 19 28 37
b 31 8 19 28 30 37
b 32 19 28 29 30 37
b 33 28 29 30 37 38
b 34 30 39 40
b 35 21 31 32
b 36 9 10 20
1 2
2 4
3 36
3 5
4 10
5 31
6 35
6 11
7 34
7 33
8 14
9 20
10 11
11 12
12 13
13 14
14 15
15 16
16 17
17 18
18 19
19 20
20 21
21 22
22 23
23 24
24 25
25 26
26 27
27 28
28 29
29 30
30 31
31 32
32 33
